NAME: line_43_7
TYPE: TSP
COMMENT: srandom_43_7
DIMENSION: 43
EDGE_WEIGHT_TYPE: EUC_2D
NODE_COORD_SECTION
1 4251 2726
2 4389 2204
3 873 4106
4 4238 2088
5 1593 3620
6 1001 2277
7 628 4143
8 1744 3155
9 31 3204
10 1102 2562
11 606 4200
12 1439 4398
13 2666 4679
14 265 2970
15 4716 3528
16 626 1537
17 3958 2354
18 4405 2728
19 908 1205
20 4228 15
21 4384 4844
22 2355 3544
23 3499 3646
24 2987 1918
25 1871 648
26 305 4929
27 4007 2247
28 4009 1375
29 2136 647
30 2503 236
31 706 1749
32 4769 2785
33 1428 1345
34 3985 906
35 1905 1203
36 2317 4747
37 1913 4084
38 1823 3003
39 2117 3753
40 1998 2366
41 4341 670
42 4267 384
43 2380 2029
